
Gurobi 13.0.2 (win64) logging started Thu Jul 23 17:18:43 2026

Set parameter LogFile to value "E:\codes\ExactEBRP\results\gf_gurobi_performance_recovery_round29\runs\stage2__tight_T_seed5102__c3_replica__300s\external\native_logs\R.0.1.1.0.0.1.0.1.0.0_terminal_mip.gurobi.log"
Gurobi Optimizer version 13.0.2 build v13.0.2rc1 (win64 - Windows 10.0 (19045.2))

CPU model: 12th Gen Intel(R) Core(TM) i7-12700KF, instruction set [SSE2|AVX|AVX2]
Thread count: 12 physical cores, 20 logical processors, using up to 1 threads

Non-default parameters:
TimeLimit  59.6999218
MIPGap  0
MIPGapAbs  0
LogToConsole  0
Threads  1

Optimize a model with 11916 rows, 3378 columns and 67376 nonzeros (Min)
Model fingerprint: 0x18e71e74
Model has 21 linear objective coefficients
Variable types: 1686 continuous, 1692 integer (1492 binary)
Coefficient statistics:
  Matrix range     [7e-03, 2e+04]
  Objective range  [7e-03, 1e+00]
  Bounds range     [1e-01, 4e+02]
  RHS range        [8e-02, 5e+04]

Presolve removed 1291 rows and 80 columns
Presolve time: 0.18s
Presolved: 10625 rows, 3298 columns, 88316 nonzeros
Variable types: 1640 continuous, 1658 integer (1476 binary)

Root relaxation: objective 2.531150e-01, 3227 iterations, 0.15 seconds (0.41 work units)

    Nodes    |    Current Node    |     Objective Bounds      |     Work
 Expl Unexpl |  Obj  Depth IntInf | Incumbent    BestBd   Gap | It/Node Time

     0     0    0.25312    0  202          -    0.25312      -     -    0s
     0     0    0.30790    0  215          -    0.30790      -     -    1s
     0     0    0.30996    0  201          -    0.30996      -     -    1s
     0     0    0.34967    0  232          -    0.34967      -     -    1s
     0     0    0.35543    0  234          -    0.35543      -     -    1s
     0     0 infeasible    0               - infeasible      -     -    2s

Cutting planes:
  Learned: 9
  Gomory: 5
  Cover: 39
  Implied bound: 114
  Clique: 18
  MIR: 358
  StrongCG: 8
  Flow cover: 91
  GUB cover: 4
  Zero half: 5
  Network: 10
  RLT: 8
  Relax-and-lift: 57
  BQP: 9

Explored 1 nodes (8534 simplex iterations) in 2.13 seconds (3.89 work units)
Thread count was 1 (of 20 available processors)

Solution count 0

Model is infeasible
Best objective -, best bound -, gap -

User-callback calls 1200, time in user-callback 0.00 sec
